assets/logs/14_8x8_clingo/14_8x8_clingo.solution.log

---------------------------------
|  0| 30| 12| 11| 24| 43|  1|  2|
---------------------------------
|  1| 13| 26| 41| 10|  4| 22| 45|
---------------------------------
| 28|  1| 32| 14|  9| 18|  1|  6|
---------------------------------
| 15| 48| 39| 44| 34|  8| 47| 20|
---------------------------------
| 37| 42| 17| 50| 16|  7| 29|  1|
---------------------------------
| 19|  1| 46| 36| 31| 53|  1| 49|
---------------------------------
| 40| 35| 52| 23|  1|  1|  5| 27|
---------------------------------
| 54| 21| 38| 33|  3| 25| 51|  0|
---------------------------------

| n = 8 | k = 9 | coverage = 62, 96.875%
 Time 300.0
 Name 14_8x8_clingo

