assets/logs/14_8x8_clingo/14_8x8_clingo.log
clingo version 5.4.0
Reading from ...ets/logs/14_8x8_clingo/knights_tour.lp ...
Solving...
Answer: 1
occ(1,7,6) occ(1,1,7) occ(1,6,2) occ(1,5,8) occ(1,7,5) occ(1,3,7) occ(1,6,7) occ(1,3,2) occ(1,2,1) occ(2,1,8) occ(3,8,5) coverage(6)
Optimization: -6
Answer: 2
occ(1,7,6) occ(1,1,7) occ(1,6,2) occ(1,5,8) occ(1,7,5) occ(1,3,7) occ(1,6,7) occ(1,3,2) occ(1,2,1) occ(2,1,8) occ(3,8,5) coverage(33) occ(6,1,4) occ(22,1,6) occ(44,1,3) occ(4,2,6) occ(20,2,4) occ(24,2,8) occ(42,2,5) occ(8,3,3) occ(23,3,8) occ(10,4,1) occ(18,4,3) occ(19,4,5) occ(25,4,6) occ(26,4,7) occ(29,4,2) occ(40,4,4) occ(11,5,2) occ(12,5,3) occ(16,5,1) occ(21,5,7) occ(27,5,4) occ(7,6,5) occ(17,6,4) occ(28,6,6) occ(31,6,1) occ(38,6,3) occ(5,7,7) occ(9,7,3) occ(13,7,1) occ(14,7,2) occ(30,7,8) occ(34,7,4) occ(15,8,3) occ(32,8,6) occ(36,8,2)
Optimization: -33
Answer: 3
occ(1,7,6) occ(1,1,7) occ(1,6,2) occ(1,5,8) occ(1,7,5) occ(1,3,7) occ(1,6,7) occ(1,3,2) occ(1,2,1) occ(2,1,8) occ(3,8,5) coverage(35) occ(6,1,4) occ(22,1,6) occ(33,1,5) occ(44,1,3) occ(4,2,6) occ(11,2,3) occ(20,2,4) occ(24,2,8) occ(42,2,5) occ(8,3,3) occ(9,3,5) occ(13,3,1) occ(23,3,8) occ(31,3,4) occ(10,4,1) occ(18,4,3) occ(25,4,6) occ(26,4,7) occ(29,4,2) occ(40,4,4) occ(7,5,6) occ(12,5,3) occ(15,5,2) occ(16,5,1) occ(21,5,7) occ(27,5,4) occ(19,6,5) occ(28,6,6) occ(38,6,3) occ(5,7,7) occ(14,7,2) occ(17,7,3) occ(30,7,8) occ(34,7,4) occ(32,8,6) occ(36,8,2)
Optimization: -35
Answer: 4
occ(1,7,6) occ(1,1,7) occ(1,6,2) occ(1,5,8) occ(1,7,5) occ(1,3,7) occ(1,6,7) occ(1,3,2) occ(1,2,1) occ(2,1,8) occ(3,8,5) coverage(37) occ(6,1,4) occ(22,1,6) occ(44,1,3) occ(4,2,6) occ(15,2,7) occ(19,2,3) occ(20,2,4) occ(24,2,8) occ(42,2,5) occ(8,3,3) occ(11,3,6) occ(17,3,5) occ(21,3,1) occ(35,3,8) occ(10,4,1) occ(13,4,8) occ(18,4,3) occ(26,4,7) occ(29,4,2) occ(33,4,6) occ(40,4,4) occ(9,5,7) occ(12,5,3) occ(16,5,1) occ(23,5,2) occ(31,5,4) occ(7,6,5) occ(27,6,1) occ(28,6,6) occ(38,6,3) occ(5,7,7) occ(14,7,2) occ(25,7,3) occ(30,7,8) occ(34,7,4) occ(32,8,6) occ(36,8,2)
Optimization: -37
Answer: 5
occ(1,7,6) occ(1,1,7) occ(1,6,2) occ(1,5,8) occ(1,7,5) occ(1,3,7) occ(1,6,7) occ(1,3,2) occ(1,2,1) occ(2,1,8) occ(3,8,5) coverage(39) occ(6,1,4) occ(22,1,6) occ(44,1,3) occ(4,2,6) occ(15,2,7) occ(19,2,3) occ(20,2,4) occ(24,2,8) occ(37,2,2) occ(42,2,5) occ(8,3,3) occ(11,3,6) occ(17,3,5) occ(21,3,1) occ(35,3,4) occ(10,4,1) occ(13,4,8) occ(18,4,3) occ(26,4,7) occ(29,4,2) occ(33,4,6) occ(40,4,4) occ(9,5,7) occ(12,5,3) occ(16,5,1) occ(23,5,2) occ(31,5,4) occ(7,6,5) occ(27,6,1) occ(28,6,6) occ(38,6,3) occ(5,7,7) occ(14,7,2) occ(25,7,3) occ(30,7,8) occ(34,7,4) occ(32,8,6) occ(36,8,2)
Optimization: -39
Answer: 6
occ(1,7,6) occ(1,1,7) occ(1,6,2) occ(1,5,8) occ(1,7,5) occ(1,3,7) occ(1,6,7) occ(1,3,2) occ(1,2,1) occ(2,1,8) occ(3,8,5) coverage(41) occ(6,1,4) occ(22,1,6) occ(33,1,5) occ(44,1,3) occ(4,2,6) occ(19,2,3) occ(20,2,4) occ(24,2,8) occ(35,2,7) occ(42,2,5) occ(8,3,3) occ(11,3,8) occ(17,3,5) occ(21,3,1) occ(31,3,4) occ(39,3,6) occ(10,4,1) occ(13,4,6) occ(18,4,3) occ(26,4,7) occ(29,4,2) occ(37,4,8) occ(40,4,4) occ(9,5,7) occ(12,5,3) occ(15,5,4) occ(16,5,1) occ(23,5,2) occ(7,6,5) occ(27,6,1) occ(28,6,6) occ(38,6,3) occ(5,7,7) occ(14,7,2) occ(25,7,3) occ(30,7,8) occ(34,7,4) occ(32,8,6) occ(36,8,2)
Optimization: -41
Answer: 7
occ(1,7,6) occ(1,1,7) occ(1,6,2) occ(1,5,8) occ(1,7,5) occ(1,3,7) occ(1,6,7) occ(1,3,2) occ(1,2,1) occ(2,1,8) occ(3,8,5) coverage(43) occ(6,1,4) occ(22,1,6) occ(25,1,5) occ(44,1,3) occ(4,2,6) occ(20,2,4) occ(23,2,3) occ(24,2,8) occ(35,2,7) occ(42,2,5) occ(8,3,3) occ(21,3,1) occ(27,3,4) occ(39,3,6) occ(10,4,1) occ(11,4,5) occ(18,4,3) occ(26,4,7) occ(29,4,2) occ(33,4,6) occ(37,4,8) occ(40,4,4) occ(9,5,7) occ(12,5,3) occ(16,5,1) occ(19,5,2) occ(31,5,4) occ(41,5,5) occ(7,6,5) occ(13,6,4) occ(28,6,6) occ(38,6,3) occ(5,7,7) occ(14,7,2) occ(17,7,1) occ(30,7,8) occ(34,7,4) occ(15,8,3) occ(32,8,6) occ(36,8,2)
Optimization: -43
Answer: 8
occ(1,7,6) occ(1,1,7) occ(1,6,2) occ(1,5,8) occ(1,7,5) occ(1,3,7) occ(1,6,7) occ(1,3,2) occ(1,2,1) occ(2,1,8) occ(3,8,5) coverage(45) occ(6,1,4) occ(22,1,6) occ(41,1,5) occ(44,1,3) occ(4,2,6) occ(20,2,4) occ(24,2,8) occ(39,2,7) occ(42,2,5) occ(43,2,3) occ(8,3,3) occ(23,3,8) occ(31,3,4) occ(35,3,6) occ(10,4,1) occ(18,4,3) occ(19,4,5) occ(25,4,6) occ(26,4,7) occ(29,4,2) occ(37,4,8) occ(40,4,4) occ(11,5,2) occ(12,5,3) occ(16,5,1) occ(21,5,7) occ(27,5,4) occ(33,5,5) occ(7,6,5) occ(17,6,4) occ(28,6,6) occ(38,6,3) occ(5,7,7) occ(9,7,3) occ(13,7,1) occ(14,7,2) occ(30,7,8) occ(34,7,4) occ(15,8,3) occ(32,8,6) occ(36,8,2)
Optimization: -45
Answer: 9
occ(1,7,6) occ(1,1,7) occ(1,6,2) occ(1,5,8) occ(1,7,5) occ(1,3,7) occ(1,6,7) occ(1,3,2) occ(1,2,1) occ(2,1,8) occ(3,8,5) coverage(46) occ(22,1,6) occ(23,1,4) occ(44,1,3) occ(45,1,5) occ(4,2,6) occ(19,2,3) occ(20,2,4) occ(24,2,8) occ(25,2,2) occ(42,2,5) occ(43,2,7) occ(8,3,3) occ(17,3,1) occ(21,3,5) occ(27,3,4) occ(35,3,8) occ(39,3,6) occ(6,4,5) occ(10,4,1) occ(18,4,3) occ(26,4,7) occ(29,4,2) occ(33,4,6) occ(40,4,4) occ(41,4,8) occ(7,5,6) occ(12,5,3) occ(15,5,2) occ(16,5,1) occ(31,5,4) occ(37,5,7) occ(9,6,4) occ(28,6,6) occ(38,6,3) occ(5,7,7) occ(13,7,1) occ(14,7,2) occ(30,7,8) occ(34,7,4) occ(11,8,3) occ(32,8,6) occ(36,8,2)
Optimization: -46
Answer: 10
occ(1,7,6) occ(1,1,7) occ(1,6,2) occ(1,5,8) occ(1,7,5) occ(1,3,7) occ(1,6,7) occ(1,3,2) occ(1,2,1) occ(2,1,8) occ(3,8,5) coverage(48) occ(14,1,6) occ(34,1,2) occ(40,1,5) occ(49,1,3) occ(4,2,6) occ(8,2,4) occ(12,2,8) occ(38,2,3) occ(42,2,7) occ(47,2,5) occ(10,3,6) occ(15,3,8) occ(16,3,5) occ(19,3,4) occ(32,3,3) occ(36,3,1) occ(6,4,5) occ(17,4,6) occ(18,4,7) occ(21,4,2) occ(22,4,3) occ(30,4,1) occ(44,4,8) occ(45,4,4) occ(13,5,7) occ(20,5,5) occ(23,5,4) occ(24,5,1) occ(28,5,3) occ(35,5,2) occ(46,5,6) occ(7,6,5) occ(25,6,6) occ(31,6,1) occ(37,6,4) occ(43,6,3) occ(5,7,7) occ(11,7,8) occ(26,7,2) occ(27,7,4) occ(33,7,3) occ(41,7,1) occ(9,8,6) occ(29,8,2) occ(39,8,3)
Optimization: -48
Answer: 11
occ(1,7,6) occ(1,1,7) occ(1,6,2) occ(1,5,8) occ(1,7,5) occ(1,3,7) occ(1,6,7) occ(1,3,2) occ(1,2,1) occ(2,1,8) occ(3,8,5) coverage(49) occ(14,1,6) occ(34,1,2) occ(40,1,5) occ(4,2,6) occ(8,2,4) occ(12,2,8) occ(38,2,3) occ(42,2,7) occ(47,2,5) occ(10,3,6) occ(15,3,8) occ(16,3,5) occ(19,3,4) occ(32,3,3) occ(36,3,1) occ(6,4,5) occ(17,4,6) occ(18,4,7) occ(21,4,2) occ(22,4,3) occ(30,4,1) occ(44,4,8) occ(45,4,4) occ(13,5,7) occ(20,5,5) occ(23,5,4) occ(24,5,1) occ(28,5,3) occ(35,5,2) occ(46,5,6) occ(7,6,5) occ(25,6,6) occ(31,6,1) occ(37,6,4) occ(43,6,3) occ(48,6,8) occ(5,7,7) occ(11,7,8) occ(26,7,2) occ(27,7,4) occ(33,7,3) occ(41,7,1) occ(9,8,6) occ(29,8,2) occ(39,8,3) occ(50,8,7)
Optimization: -49
Answer: 12
occ(1,7,6) occ(1,1,7) occ(1,6,2) occ(1,5,8) occ(1,7,5) occ(1,3,7) occ(1,6,7) occ(1,3,2) occ(1,2,1) occ(2,1,8) occ(3,8,5) coverage(50) occ(14,1,6) occ(34,1,2) occ(40,1,5) occ(49,1,3) occ(4,2,6) occ(8,2,4) occ(12,2,8) occ(38,2,3) occ(42,2,7) occ(47,2,5) occ(10,3,6) occ(15,3,8) occ(16,3,5) occ(19,3,4) occ(32,3,3) occ(36,3,1) occ(6,4,5) occ(17,4,6) occ(18,4,7) occ(21,4,2) occ(22,4,3) occ(30,4,1) occ(44,4,8) occ(45,4,4) occ(13,5,7) occ(20,5,5) occ(23,5,4) occ(24,5,1) occ(28,5,3) occ(35,5,2) occ(46,5,6) occ(7,6,5) occ(25,6,6) occ(31,6,1) occ(37,6,4) occ(43,6,3) occ(48,6,8) occ(5,7,7) occ(11,7,8) occ(26,7,2) occ(27,7,4) occ(33,7,3) occ(41,7,1) occ(9,8,6) occ(29,8,2) occ(39,8,3)
Optimization: -50
Answer: 13
occ(1,7,6) occ(1,1,7) occ(1,6,2) occ(1,5,8) occ(1,7,5) occ(1,3,7) occ(1,6,7) occ(1,3,2) occ(1,2,1) occ(2,1,8) occ(3,8,5) coverage(51) occ(14,1,6) occ(34,1,2) occ(40,1,5) occ(49,1,3) occ(4,2,6) occ(8,2,4) occ(12,2,8) occ(38,2,3) occ(42,2,7) occ(47,2,5) occ(10,3,6) occ(15,3,8) occ(16,3,5) occ(19,3,4) occ(32,3,3) occ(36,3,1) occ(6,4,5) occ(17,4,6) occ(18,4,7) occ(21,4,2) occ(22,4,3) occ(30,4,1) occ(44,4,8) occ(45,4,4) occ(13,5,7) occ(20,5,5) occ(23,5,4) occ(24,5,1) occ(28,5,3) occ(35,5,2) occ(46,5,6) occ(7,6,5) occ(25,6,6) occ(31,6,1) occ(37,6,4) occ(43,6,3) occ(48,6,8) occ(5,7,7) occ(11,7,8) occ(26,7,2) occ(27,7,4) occ(33,7,3) occ(41,7,1) occ(9,8,6) occ(29,8,2) occ(39,8,3) occ(50,8,7)
Optimization: -51
Answer: 14
occ(1,7,6) occ(1,1,7) occ(1,6,2) occ(1,5,8) occ(1,7,5) occ(1,3,7) occ(1,6,7) occ(1,3,2) occ(1,2,1) occ(2,1,8) occ(3,8,5) coverage(52) occ(35,1,2) occ(38,1,6) occ(50,1,4) occ(4,2,6) occ(11,2,7) occ(12,2,8) occ(27,2,3) occ(31,2,5) occ(40,2,4) occ(48,2,2) occ(6,3,4) occ(10,3,6) occ(15,3,8) occ(33,3,3) occ(36,3,5) occ(37,3,1) occ(9,4,8) occ(13,4,6) occ(14,4,7) occ(25,4,2) occ(29,4,4) occ(39,4,3) occ(42,4,5) occ(46,4,1) occ(7,5,6) occ(8,5,5) occ(17,5,7) occ(34,5,4) occ(41,5,1) occ(44,5,3) occ(51,5,2) occ(16,6,8) occ(19,6,5) occ(20,6,6) occ(23,6,3) occ(30,6,1) occ(45,6,4) occ(5,7,7) occ(22,7,8) occ(26,7,4) occ(32,7,3) occ(43,7,2) occ(49,7,1) occ(18,8,7) occ(21,8,4) occ(24,8,6) occ(28,8,2) occ(47,8,3)
Optimization: -52
Answer: 15
occ(1,7,6) occ(1,1,7) occ(1,6,2) occ(1,5,8) occ(1,7,5) occ(1,3,7) occ(1,6,7) occ(1,3,2) occ(1,2,1) occ(2,1,8) occ(3,8,5) coverage(53) occ(19,1,6) occ(28,1,5) occ(39,1,2) occ(47,1,4) occ(52,1,3) occ(4,2,6) occ(17,2,4) occ(21,2,8) occ(30,2,7) occ(43,2,3) occ(49,2,2) occ(50,2,5) occ(26,3,6) occ(37,3,3) occ(41,3,1) occ(45,3,5) occ(46,3,8) occ(51,3,4) occ(6,4,5) occ(15,4,3) occ(20,4,2) occ(23,4,7) occ(24,4,4) occ(32,4,8) occ(35,4,1) occ(48,4,6) occ(13,5,1) occ(14,5,2) occ(18,5,4) occ(25,5,5) occ(33,5,3) occ(34,5,6) occ(44,5,7) occ(7,6,5) occ(8,6,4) occ(22,6,3) occ(31,6,1) occ(36,6,8) occ(40,6,6) occ(5,7,7) occ(11,7,2) occ(12,7,1) occ(16,7,3) occ(27,7,4) occ(42,7,8) occ(9,8,4) occ(10,8,3) occ(29,8,2) occ(38,8,7)
Optimization: -53
Answer: 16
occ(1,7,6) occ(1,1,7) occ(1,6,2) occ(1,5,8) occ(1,7,5) occ(1,3,7) occ(1,6,7) occ(1,3,2) occ(1,2,1) occ(2,1,8) occ(3,8,5) coverage(54) occ(6,1,4) occ(27,1,2) occ(28,1,5) occ(32,1,3) occ(43,1,6) occ(4,2,6) occ(8,2,2) occ(21,2,4) occ(26,2,3) occ(34,2,5) occ(41,2,8) occ(47,2,7) occ(19,3,6) occ(25,3,1) occ(29,3,3) occ(30,3,4) occ(38,3,8) occ(45,3,5) occ(10,4,1) occ(13,4,4) occ(23,4,3) occ(24,4,2) occ(31,4,5) occ(36,4,6) occ(39,4,7) occ(49,4,8) occ(11,5,2) occ(12,5,3) occ(17,5,5) occ(22,5,4) occ(40,5,7) occ(51,5,6) occ(52,5,1) occ(5,6,4) occ(15,6,3) occ(18,6,1) occ(33,6,6) occ(37,6,8) occ(46,6,5) occ(9,7,1) occ(14,7,4) occ(20,7,3) occ(42,7,8) occ(50,7,2) occ(53,7,7) occ(7,8,3) occ(16,8,2) occ(35,8,7) occ(44,8,6) occ(48,8,4)
Optimization: -54
Answer: 17
occ(1,7,6) occ(1,1,7) occ(1,6,2) occ(1,5,8) occ(1,7,5) occ(1,3,7) occ(1,6,7) occ(1,3,2) occ(1,2,1) occ(2,1,8) occ(3,8,5) coverage(55) occ(11,1,4) occ(12,1,3) occ(24,1,5) occ(30,1,2) occ(43,1,6) occ(4,2,6) occ(10,2,5) occ(13,2,2) occ(22,2,7) occ(26,2,3) occ(41,2,4) occ(45,2,8) occ(6,3,8) occ(9,3,5) occ(14,3,4) occ(18,3,6) occ(28,3,1) occ(32,3,3) occ(8,4,6) occ(15,4,1) occ(20,4,8) occ(34,4,5) occ(39,4,3) occ(44,4,4) occ(47,4,7) occ(48,4,2) occ(7,5,6) occ(16,5,5) occ(17,5,3) occ(29,5,7) occ(37,5,1) occ(42,5,2) occ(50,5,4) occ(19,6,1) occ(31,6,5) occ(36,6,4) occ(46,6,3) occ(49,6,8) occ(53,6,6) occ(5,7,7) occ(23,7,4) occ(27,7,8) occ(35,7,2) occ(40,7,1) occ(52,7,3) occ(21,8,2) occ(25,8,6) occ(33,8,4) occ(38,8,3) occ(51,8,7) occ(54,8,1)
Optimization: -55
*** Info : (clingo): INTERRUPTED by signal!
SATISFIABLE

TIME LIMIT   : 1
Models       : 17+
  Optimum    : unknown
Optimization : -55
Calls        : 1
Time         : 300.000s (Solving: 299.71s 1st Model: 0.00s Unsat: 0.00s)
CPU Time     : 300.000s
